c A SAT instance generated from a 3-CNF formula that had 25 clauses and 7 variables
p cnf 7 25
4 -5 1 0
-4 6 -3 0
-6 1 2 0
3 6 -4 0
-2 -3 1 0
-7 -2 3 0
-5 2 -4 0
-1 -3 5 0
2 -4 -1 0
5 3 2 0
4 -5 -6 0
-6 -7 -5 0
5 4 -2 0
-3 -2 -7 0
-1 -4 3 0
-2 5 -4 0
2 -4 -6 0
2 3 1 0
6 -5 4 0
2 6 1 0
7 2 -1 0
-2 -5 -1 0
-4 7 -1 0
-1 -3 7 0
1 4 -2 0
